NAME : att532
TYPE : TSP
COMMENT : 532-city problem (Padberg/Rinaldi)
DIMENSION : 10
EDGE_WEIGHT_TYPE : ATT
NODE_COORD_SECTION
1 7810 6053
2 7798 5709
3 7264 5575
4 7324 5560
5 7547 5503
6 7744 5476
7 7821 5457
8 7883 5408
9 7874 5405
10 7927 5365
